c Output_time 26.03.2020 18:15:24_+0100 1585242924729873578
c ** Program information **
c program_name                          "QBRG_debug"
c version                               "0.3.20"
c date                                  "25.3.2020"
c gid_id                                "673970833836058123f633335630c185360d632e"
c author                                "Oliver Kullmann"
c url                                   "https://github.com/OKullmann/oklibrary/blob/master/Satisfiability/Transformers/Generators/Random/QBRG.cpp"
c ** Machine information **
c machine_name                          "chyna-Lenovo-G50-70"
c bogomips                              3791.08
c ** Compilation information **
c compiler_version                      "g++ 7.5.0"
c compilation_date                      "Mar_26_2020 11:16:30"
c compilation_options                   "--std=c++17 -pedantic -fmax-errors=5 -Wall -Wextra -g -D_GLIBCXX_DEBUG"
c NDEBUG                                0
c OPTIMIZE                              0
c ** Parameters **
c command-line                          "./QBRG_debug" "a40 e40 a40 40" "504*1,1|2-2,1|3-3,1|4-4,1" "" "1,t" ""
c output                                "QuBlRaGe_160_504_1585242924644028241.qdimacs"
c options                               "filtered,renamed"
c num_quantifier_blocks                 4
c  quantifier_blocks                    1:a1-40 2:e41-80 3:a81-120 4:e121-160
c num_clause-blocks                     1
c  clause-blocks                        504 * {1-40,1,1/2} | {41-80,1,1/2} | {81-120,1,1/2} | {121-160,1,1/2}
c num_e-seeds                           37+2=39
c  e-seeds                              1 0 1 0 5 160 2 40 0 40 1 40 0 40 1 504 4 1 1 1 1 2 2 2 1 1 2 3 3 1 1 2 4 4 1 1 2 1 1585242924644027365
p cnf 160 504
a 1 2 3 4 5 6 7 8 9 10 11 12 13 14 15 16 17 18 19 20 21 22 23 24 25 26 27 28 29 30 31 32 33 34 35 36 37 38 39 40 0
e 41 42 43 44 45 46 47 48 49 50 51 52 53 54 55 56 57 58 59 60 61 62 63 64 65 66 67 68 69 70 71 72 73 74 75 76 77 78 79 80 0
a 81 82 83 84 85 86 87 88 89 90 91 92 93 94 95 96 97 98 99 100 101 102 103 104 105 106 107 108 109 110 111 112 113 114 115 116 117 118 119 120 0
e 121 122 123 124 125 126 127 128 129 130 131 132 133 134 135 136 137 138 139 140 141 142 143 144 145 146 147 148 149 150 151 152 153 154 155 156 157 158 159 160 0
-5 64 82 -121 0
12 67 -83 -121 0
11 -69 84 -121 0
-10 57 -91 -121 0
-19 -67 99 -121 0
-1 65 100 -121 0
20 -74 -110 -121 0
27 -64 88 121 0
6 65 -92 121 0
3 -72 -94 121 0
40 -41 95 121 0
-40 -64 -96 121 0
1 -63 98 121 0
-37 -43 99 121 0
7 -48 100 121 0
-34 -56 -104 121 0
-4 -44 -107 121 0
11 -65 -119 121 0
28 63 -88 -122 0
-33 62 -89 -122 0
-27 45 94 -122 0
5 79 100 -122 0
-10 -67 -110 -122 0
36 53 -112 -122 0
11 46 -81 122 0
-22 59 -92 122 0
-15 -45 -93 122 0
-18 51 -93 122 0
-26 -80 98 122 0
5 71 -100 122 0
38 -65 107 122 0
6 45 -116 122 0
-15 -68 -117 122 0
-3 -78 83 -123 0
21 78 -88 -123 0
-32 51 -90 -123 0
23 -46 -92 -123 0
-29 78 94 -123 0
-36 -55 -103 -123 0
38 -56 -103 -123 0
28 52 113 -123 0
11 59 118 -123 0
38 71 -119 -123 0
-3 49 86 123 0
-40 -65 -97 123 0
-13 44 97 123 0
-7 -71 -99 123 0
24 49 102 123 0
20 66 -114 123 0
22 57 -83 -124 0
35 61 -99 -124 0
-15 -44 -101 -124 0
-30 -74 -103 -124 0
15 -66 109 -124 0
2 -70 -112 -124 0
18 -71 112 -124 0
-26 -68 -113 -124 0
-28 -77 -117 -124 0
1 76 -119 -124 0
-9 -62 -91 124 0
25 71 97 124 0
-20 -75 -98 124 0
26 76 -99 124 0
32 65 -104 124 0
17 -65 107 124 0
9 -60 -113 124 0
9 54 -118 124 0
-9 -74 -93 -125 0
27 68 98 -125 0
-8 -67 99 -125 0
-8 75 99 -125 0
-3 63 -105 -125 0
22 -54 -118 -125 0
-33 54 -118 -125 0
-17 -70 -119 -125 0
4 63 84 125 0
-31 77 -92 125 0
-14 55 105 125 0
6 -66 -115 125 0
-10 -50 82 -126 0
-21 -41 83 -126 0
-35 57 83 -126 0
22 -57 -87 -126 0
39 68 -88 -126 0
-29 -66 92 -126 0
-25 -71 -93 -126 0
29 64 -95 -126 0
-26 -75 -101 -126 0
4 -58 102 -126 0
-9 53 108 -126 0
-20 -45 -116 -126 0
12 -77 83 126 0
-9 70 -84 126 0
13 -75 -95 126 0
-9 -45 98 126 0
36 -68 -108 126 0
-39 79 -110 126 0
11 -67 -116 126 0
-1 -64 95 -127 0
-40 49 -100 -127 0
22 -73 -118 -127 0
-18 -72 85 127 0
-18 -45 89 127 0
-17 64 89 127 0
-16 -56 -105 127 0
-18 49 107 127 0
1 69 107 127 0
9 78 107 127 0
-1 -65 113 127 0
-30 -60 -114 127 0
26 65 119 127 0
-19 63 -98 -128 0
8 57 98 -128 0
-14 -72 103 -128 0
33 -62 -112 -128 0
15 -80 -120 -128 0
18 -70 120 -128 0
-14 -75 84 128 0
-3 55 93 128 0
4 -63 99 128 0
-15 61 101 128 0
36 -77 -112 128 0
-6 45 120 128 0
-39 62 -82 -129 0
-4 -41 83 -129 0
-22 -79 84 -129 0
32 54 102 -129 0
-17 68 -107 -129 0
16 55 -116 -129 0
11 51 -81 129 0
22 52 -84 129 0
-29 76 87 129 0
-39 53 -97 129 0
-40 72 -99 129 0
-28 -65 107 129 0
-36 -52 112 129 0
-20 -41 -119 129 0
24 -67 84 -130 0
18 65 -89 -130 0
-3 -79 -95 -130 0
27 63 96 -130 0
-6 49 -99 -130 0
-16 79 -84 130 0
30 -61 87 130 0
-15 48 -95 130 0
26 47 97 130 0
-31 60 -114 130 0
-29 -50 -115 130 0
-10 45 -89 -131 0
-4 72 -92 -131 0
30 42 -95 -131 0
26 -78 -100 -131 0
-2 -77 101 -131 0
6 41 113 -131 0
-7 71 -120 -131 0
-18 -75 -93 131 0
-32 -41 93 131 0
-1 -59 99 131 0
2 62 106 131 0
-12 45 114 131 0
25 50 115 131 0
-1 -60 -81 -132 0
33 73 -95 -132 0
40 76 95 -132 0
3 62 -107 -132 0
27 -66 -107 -132 0
-20 76 84 132 0
-39 68 89 132 0
14 -70 -97 132 0
18 76 97 132 0
-22 -63 98 132 0
15 -55 116 132 0
-6 65 -119 132 0
-19 -46 82 -133 0
-3 48 88 -133 0
13 58 96 -133 0
-17 -45 97 -133 0
-39 -49 106 -133 0
15 44 107 -133 0
-21 78 -113 -133 0
-37 48 86 133 0
35 43 98 133 0
-12 -53 -100 133 0
15 46 112 133 0
8 -63 113 133 0
37 67 -81 -134 0
34 -68 -81 -134 0
8 -68 -86 -134 0
39 -46 -93 -134 0
37 52 114 -134 0
8 47 -90 134 0
-21 -56 -100 134 0
20 43 -113 134 0
-27 -46 -113 134 0
-36 -61 118 134 0
17 44 93 -135 0
36 61 -106 -135 0
-37 76 109 -135 0
13 48 -119 -135 0
-21 56 -83 135 0
18 78 91 135 0
-39 -47 -99 135 0
20 57 -100 135 0
25 -71 110 135 0
-31 78 115 135 0
6 -68 99 -136 0
-27 68 103 -136 0
-32 44 -117 -136 0
-13 -71 85 136 0
5 53 -88 136 0
-39 51 90 136 0
-1 41 -103 136 0
6 -75 113 136 0
-3 -63 -87 -137 0
-15 -68 115 -137 0
-39 78 -83 137 0
-20 -44 -94 137 0
-32 -73 101 137 0
31 53 -106 137 0
-26 -69 -88 -138 0
-20 -56 92 -138 0
25 -47 -95 -138 0
-4 -63 95 -138 0
6 77 101 -138 0
-35 79 109 -138 0
-18 61 -113 -138 0
17 -76 117 -138 0
-8 58 -119 -138 0
-35 48 85 138 0
-4 -72 86 138 0
-28 66 -87 138 0
-16 -61 -100 138 0
-29 -42 -102 138 0
-27 -46 -104 138 0
-40 -42 -106 138 0
-5 61 -108 138 0
-19 53 109 138 0
-14 42 -112 138 0
17 -51 113 138 0
22 -58 118 138 0
7 -54 103 -139 0
-19 53 104 -139 0
22 55 87 139 0
6 -70 87 139 0
38 -62 89 139 0
-4 -74 -101 139 0
-11 -76 -109 139 0
-21 -63 -119 139 0
-8 55 -88 -140 0
-30 -51 -93 -140 0
33 67 -99 -140 0
-17 -80 -104 -140 0
-36 -50 -112 -140 0
-36 65 112 -140 0
-3 -46 116 -140 0
-5 -73 -88 140 0
4 -71 -93 140 0
-19 77 96 140 0
-19 -59 99 140 0
-38 75 103 140 0
11 -70 -120 140 0
29 -54 -91 -141 0
11 65 -102 -141 0
-23 66 116 -141 0
36 77 -118 -141 0
-40 61 118 -141 0
21 47 -119 -141 0
12 -58 -87 141 0
5 69 -88 141 0
-38 67 88 141 0
26 47 -91 141 0
-39 78 92 141 0
-26 -48 -106 141 0
-31 -80 107 141 0
-35 66 113 141 0
31 -54 114 141 0
-25 -79 -84 -142 0
24 65 -85 -142 0
31 64 -105 -142 0
29 48 -106 -142 0
34 72 111 -142 0
5 -46 114 -142 0
11 -42 -115 -142 0
-40 56 -86 142 0
-40 43 89 142 0
-5 -76 -103 142 0
35 -69 108 142 0
3 49 119 142 0
-33 58 -84 -143 0
-5 60 90 -143 0
-16 48 92 -143 0
-28 -74 107 -143 0
-16 54 -82 143 0
1 55 98 143 0
14 53 -103 143 0
6 62 118 143 0
12 47 -83 -144 0
-40 -57 87 -144 0
37 78 100 -144 0
-1 -70 -109 -144 0
28 -74 109 -144 0
-20 -48 -110 -144 0
8 55 -111 -144 0
-7 53 115 -144 0
28 -60 85 144 0
34 -49 86 144 0
-36 68 88 144 0
-27 79 -93 144 0
-34 46 100 144 0
-6 -53 -102 144 0
-34 57 104 144 0
-2 -45 -109 144 0
22 47 -111 144 0
16 47 111 144 0
18 -49 -120 144 0
-3 45 81 -145 0
15 78 86 -145 0
27 80 89 -145 0
-5 66 -92 -145 0
-6 -56 107 -145 0
-19 -58 -109 -145 0
35 75 -116 -145 0
-24 -41 -118 -145 0
-7 -77 85 145 0
5 59 -86 145 0
11 43 -87 145 0
-36 -45 89 145 0
-36 -71 92 145 0
-39 56 -99 145 0
-28 80 103 145 0
-18 80 -105 145 0
-37 41 117 145 0
-17 -77 97 -146 0
40 -53 109 -146 0
27 80 -112 -146 0
-15 50 81 146 0
40 -41 -90 146 0
-33 -42 105 146 0
-34 -50 -112 146 0
-8 -70 114 146 0
-39 -60 -92 147 0
-4 46 92 147 0
18 43 -93 147 0
40 50 -97 147 0
-15 -73 100 147 0
32 -80 -103 147 0
-11 -44 114 147 0
-28 70 81 -148 0
-14 46 -116 -148 0
33 50 -116 -148 0
22 63 -117 -148 0
18 -78 118 -148 0
26 -62 92 148 0
-32 44 -93 148 0
1 -50 -103 148 0
24 43 -112 148 0
12 75 -85 -149 0
-7 60 -108 -149 0
-27 -44 -110 -149 0
-40 -74 119 -149 0
-26 -72 89 149 0
-29 76 -106 149 0
7 -56 106 149 0
40 -66 107 149 0
-26 63 -114 149 0
-38 58 90 -150 0
17 -69 -99 -150 0
37 73 -101 -150 0
-19 73 104 -150 0
-19 77 110 -150 0
5 58 -84 150 0
28 76 84 150 0
33 -79 -95 150 0
-22 76 99 150 0
11 52 -118 150 0
-3 -73 81 -151 0
21 -72 82 -151 0
-32 -69 83 -151 0
-18 55 -87 -151 0
23 -53 87 -151 0
-21 -42 88 -151 0
1 -70 93 -151 0
-36 -76 -105 -151 0
-22 50 109 -151 0
-6 -79 116 -151 0
28 -75 -84 151 0
-33 -51 89 151 0
19 -48 -94 151 0
-11 46 -97 151 0
-31 -60 -110 151 0
-13 -65 -115 151 0
-4 79 -116 151 0
-26 70 84 -152 0
-13 68 -89 -152 0
6 -80 -90 -152 0
33 -75 -97 -152 0
8 76 98 -152 0
5 -41 -118 -152 0
28 46 104 152 0
-3 48 -81 -153 0
-27 42 -93 -153 0
40 -66 93 -153 0
-26 75 95 -153 0
29 70 -100 -153 0
6 -53 106 -153 0
4 48 -112 -153 0
30 42 116 -153 0
-9 -76 117 -153 0
36 73 -118 -153 0
-12 45 96 153 0
24 -67 112 153 0
-32 -55 -115 153 0
-22 -74 117 153 0
-14 -78 118 153 0
16 -65 -90 -154 0
28 47 97 -154 0
33 -66 109 -154 0
12 66 91 154 0
-5 57 108 154 0
33 53 -117 154 0
3 56 117 154 0
24 44 118 154 0
7 -44 -86 -155 0
-28 -44 -90 -155 0
9 -45 -94 -155 0
-37 58 94 -155 0
-3 51 104 -155 0
-32 -80 105 -155 0
8 -76 -114 -155 0
30 47 -119 -155 0
-10 -55 119 -155 0
-4 67 120 -155 0
26 67 -90 155 0
-9 -80 -91 155 0
28 52 98 155 0
-25 59 98 155 0
-12 -58 106 155 0
33 68 -107 155 0
16 53 113 155 0
-20 70 -118 155 0
27 -43 87 -156 0
26 46 98 -156 0
22 48 -102 -156 0
-1 -74 99 156 0
25 -60 -101 156 0
-8 62 -102 156 0
7 78 -110 156 0
-5 -57 -112 156 0
39 -65 117 156 0
39 -69 -118 156 0
15 41 -120 156 0
29 -78 82 -157 0
9 73 -89 -157 0
-36 -66 -93 -157 0
17 -58 93 -157 0
28 73 -98 -157 0
-32 65 103 -157 0
15 -43 109 -157 0
13 68 113 -157 0
6 79 118 -157 0
25 -74 -120 -157 0
-7 -43 -102 157 0
25 68 106 157 0
36 74 106 157 0
16 -49 108 157 0
-18 76 109 157 0
4 47 -115 157 0
13 -67 -120 157 0
-26 -46 -84 -158 0
26 62 -89 -158 0
-6 67 101 -158 0
32 -71 105 -158 0
-22 -41 108 -158 0
-20 -62 -112 -158 0
27 75 -115 -158 0
12 62 -89 158 0
15 -72 -93 158 0
-22 51 -94 158 0
18 69 94 158 0
20 52 95 158 0
-36 -52 85 -159 0
-1 73 101 -159 0
-28 -46 106 -159 0
-7 -66 114 -159 0
-20 64 -85 159 0
26 -52 94 159 0
10 -74 94 159 0
9 77 -99 159 0
-2 -47 -109 159 0
13 49 -110 159 0
31 41 -111 159 0
38 -45 -113 159 0
-18 60 88 -160 0
4 59 -91 -160 0
-21 69 91 -160 0
21 -79 -100 -160 0
-40 48 -108 -160 0
13 72 109 -160 0
20 73 114 -160 0
-6 -46 118 -160 0
-35 -50 89 160 0
-37 74 -101 160 0
-5 -45 -103 160 0
-1 -69 111 160 0
